\ENCODING=ISO-8859-1
\Problem name: IloCplex

Maximize
 obj1: 0.333333343267441 x1 + 0.416666656732559 x2 + 0.333333343267441 x3
       + 0.666666686534882 x4 + 0.666666686534882 x5 + 0.25 x6
       + 0.222222223877907 x7 + 0.333333343267441 x8 + 0.16666667163372 x9
       + 0.583333313465118 x10 + 0.0833333358168602 x11 + 0.333333343267441 x12
       + 0.666666686534882 x13 + 0.666666686534882 x14 + 0.666666686534882 x15
       + 0.333333343267441 x16
Subject To
 c1: 42 x1 + 67 x2 + 57 x3 + 93 x4 + 90 x5 + 38 x6 + 36 x7 + 45 x8 + 33 x9
     + 79 x10 + 27 x11 + 44 x12 + 84 x13 + 86 x14 + 92 x15 + 46 x16 + 69 x17
     <= 150
Bounds
      x1 >= 0
      x2 >= 0
      x3 >= 0
      x4 >= 0
      x5 >= 0
      x6 >= 0
      x7 >= 0
      x8 >= 0
      x9 >= 0
      x10 >= 0
      x11 >= 0
      x12 >= 0
      x13 >= 0
      x14 >= 0
      x15 >= 0
      x16 >= 0
      x17 >= 0
Generals
 x1  x2  x3  x4  x5  x6  x7  x8  x9  x10  x11  x12  x13  x14  x15  x16  x17 
End
